gurobi_solutions/121_50.txt
# Objective value = 126.0063
x0_1 0
x0_2 0
x0_3 0
x0_4 0
x0_5 0
x0_6 0
x0_7 0
x0_8 0
x0_9 0
x0_10 0
x0_11 0
x0_12 0
x0_13 0
x0_14 0
x0_15 0
x0_16 0
x0_17 0
x0_18 0
x0_19 0
x0_20 0
x0_21 0
x0_22 0
x0_23 0
x0_24 0
x0_25 0
x0_26 0
x0_27 0
x0_28 0
x0_29 0
x0_30 0
x0_31 0
x0_32 0
x0_33 0
x0_34 0
x0_35 0
x0_36 0
x0_37 0
x0_38 0
x0_39 0
x0_40 0
x0_41 0
x0_42 1
x0_43 0
x0_44 0
x0_45 0
x0_46 0
x0_47 0
x0_48 0
x0_49 0
x1_0 0
x1_2 0
x1_3 0
x1_4 0
x1_5 0
x1_6 0
x1_7 0
x1_8 0
x1_9 0
x1_10 0
x1_11 0
x1_12 0
x1_13 0
x1_14 0
x1_15 0
x1_16 0
x1_17 0
x1_18 0
x1_19 0
x1_20 0
x1_21 0
x1_22 0
x1_23 0
x1_24 1
x1_25 0
x1_26 0
x1_27 0
x1_28 0
x1_29 0
x1_30 0
x1_31 0
x1_32 0
x1_33 0
x1_34 0
x1_35 0
x1_36 0
x1_37 0
x1_38 0
x1_39 0
x1_40 0
x1_41 0
x1_42 0
x1_43 0
x1_44 0
x1_45 0
x1_46 0
x1_47 0
x1_48 0
x1_49 0
x2_0 0
x2_1 0
x2_3 0
x2_4 0
x2_5 0
x2_6 0
x2_7 0
x2_8 0
x2_9 0
x2_10 0
x2_11 0
x2_12 0
x2_13 0
x2_14 0
x2_15 0
x2_16 0
x2_17 0
x2_18 0
x2_19 0
x2_20 0
x2_21 0
x2_22 0
x2_23 0
x2_24 0
x2_25 0
x2_26 0
x2_27 0
x2_28 0
x2_29 0
x2_30 0
x2_31 0
x2_32 0
x2_33 0
x2_34 0
x2_35 0
x2_36 0
x2_37 0
x2_38 0
x2_39 0
x2_40 0
x2_41 0
x2_42 0
x2_43 0
x2_44 0
x2_45 0
x2_46 0
x2_47 0
x2_48 0
x2_49 0
x3_0 0
x3_1 0
x3_2 0
x3_4 0
x3_5 0
x3_6 0
x3_7 0
x3_8 0
x3_9 0
x3_10 0
x3_11 0
x3_12 0
x3_13 0
x3_14 0
x3_15 0
x3_16 0
x3_17 0
x3_18 0
x3_19 0
x3_20 0
x3_21 0
x3_22 0
x3_23 0
x3_24 0
x3_25 0
x3_26 0
x3_27 0
x3_28 0
x3_29 0
x3_30 0
x3_31 0
x3_32 0
x3_33 0
x3_34 0
x3_35 0
x3_36 0
x3_37 0
x3_38 0
x3_39 0
x3_40 0
x3_41 0
x3_42 0
x3_43 0
x3_44 0
x3_45 0
x3_46 0
x3_47 0
x3_48 0
x3_49 0
x4_0 0
x4_1 0
x4_2 0
x4_3 0
x4_5 0
x4_6 0
x4_7 0
x4_8 0
x4_9 0
x4_10 0
x4_11 0
x4_12 0
x4_13 0
x4_14 0
x4_15 0
x4_16 0
x4_17 0
x4_18 0
x4_19 0
x4_20 0
x4_21 0
x4_22 0
x4_23 0
x4_24 0
x4_25 0
x4_26 0
x4_27 0
x4_28 0
x4_29 0
x4_30 0
x4_31 0
x4_32 0
x4_33 0
x4_34 0
x4_35 0
x4_36 0
x4_37 0
x4_38 0
x4_39 0
x4_40 0
x4_41 0
x4_42 0
x4_43 0
x4_44 0
x4_45 0
x4_46 0
x4_47 0
x4_48 0
x4_49 0
x5_0 0
x5_1 0
x5_2 0
x5_3 0
x5_4 0
x5_6 0
x5_7 0
x5_8 0
x5_9 0
x5_10 0
x5_11 0
x5_12 0
x5_13 0
x5_14 0
x5_15 0
x5_16 0
x5_17 0
x5_18 0
x5_19 0
x5_20 0
x5_21 0
x5_22 0
x5_23 0
x5_24 0
x5_25 0
x5_26 0
x5_27 0
x5_28 0
x5_29 0
x5_30 0
x5_31 0
x5_32 0
x5_33 0
x5_34 0
x5_35 0
x5_36 0
x5_37 0
x5_38 0
x5_39 0
x5_40 0
x5_41 0
x5_42 0
x5_43 0
x5_44 0
x5_45 0
x5_46 0
x5_47 0
x5_48 0
x5_49 0
x6_0 0
x6_1 0
x6_2 0
x6_3 0
x6_4 0
x6_5 0
x6_7 0
x6_8 0
x6_9 0
x6_10 0
x6_11 0
x6_12 0
x6_13 0
x6_14 0
x6_15 0
x6_16 0
x6_17 0
x6_18 0
x6_19 0
x6_20 0
x6_21 0
x6_22 0
x6_23 0
x6_24 0
x6_25 0
x6_26 0
x6_27 0
x6_28 0
x6_29 0
x6_30 0
x6_31 0
x6_32 0
x6_33 0
x6_34 0
x6_35 0
x6_36 0
x6_37 0
x6_38 0
x6_39 0
x6_40 0
x6_41 0
x6_42 0
x6_43 0
x6_44 0
x6_45 0
x6_46 0
x6_47 0
x6_48 0
x6_49 0
x7_0 0
x7_1 0
x7_2 0
x7_3 0
x7_4 0
x7_5 0
x7_6 0
x7_8 0
x7_9 0
x7_10 0
x7_11 0
x7_12 0
x7_13 0
x7_14 0
x7_15 0
x7_16 0
x7_17 0
x7_18 0
x7_19 0
x7_20 0
x7_21 0
x7_22 0
x7_23 0
x7_24 0
x7_25 0
x7_26 0
x7_27 0
x7_28 0
x7_29 0
x7_30 0
x7_31 0
x7_32 0
x7_33 0
x7_34 0
x7_35 0
x7_36 0
x7_37 0
x7_38 0
x7_39 0
x7_40 0
x7_41 0
x7_42 0
x7_43 0
x7_44 0
x7_45 0
x7_46 0
x7_47 0
x7_48 0
x7_49 0
x8_0 0
x8_1 0
x8_2 0
x8_3 0
x8_4 0
x8_5 0
x8_6 0
x8_7 0
x8_9 0
x8_10 0
x8_11 0
x8_12 0
x8_13 0
x8_14 0
x8_15 0
x8_16 0
x8_17 0
x8_18 0
x8_19 0
x8_20 0
x8_21 0
x8_22 0
x8_23 0
x8_24 0
x8_25 0
x8_26 0
x8_27 0
x8_28 0
x8_29 0
x8_30 0
x8_31 0
x8_32 0
x8_33 0
x8_34 0
x8_35 0
x8_36 0
x8_37 0
x8_38 0
x8_39 0
x8_40 0
x8_41 0
x8_42 0
x8_43 0
x8_44 0
x8_45 0
x8_46 0
x8_47 0
x8_48 0
x8_49 0
x9_0 0
x9_1 0
x9_2 0
x9_3 0
x9_4 0
x9_5 0
x9_6 0
x9_7 0
x9_8 0
x9_10 0
x9_11 0
x9_12 0
x9_13 0
x9_14 0
x9_15 0
x9_16 0
x9_17 0
x9_18 0
x9_19 0
x9_20 0
x9_21 0
x9_22 0
x9_23 1
x9_24 0
x9_25 0
x9_26 0
x9_27 0
x9_28 0
x9_29 0
x9_30 0
x9_31 0
x9_32 0
x9_33 0
x9_34 0
x9_35 0
x9_36 0
x9_37 0
x9_38 0
x9_39 0
x9_40 0
x9_41 0
x9_42 0
x9_43 0
x9_44 0
x9_45 0
x9_46 0
x9_47 0
x9_48 0
x9_49 0
x10_0 0
x10_1 0
x10_2 0
x10_3 0
x10_4 0
x10_5 0
x10_6 0
x10_7 0
x10_8 0
x10_9 0
x10_11 0
x10_12 0
x10_13 0
x10_14 0
x10_15 0
x10_16 0
x10_17 0
x10_18 0
x10_19 0
x10_20 0
x10_21 0
x10_22 0
x10_23 0
x10_24 0
x10_25 0
x10_26 0
x10_27 0
x10_28 0
x10_29 0
x10_30 0
x10_31 0
x10_32 0
x10_33 0
x10_34 1
x10_35 0
x10_36 0
x10_37 0
x10_38 0
x10_39 0
x10_40 0
x10_41 0
x10_42 0
x10_43 0
x10_44 0
x10_45 0
x10_46 0
x10_47 0
x10_48 0
x10_49 0
x11_0 0
x11_1 0
x11_2 0
x11_3 0
x11_4 0
x11_5 0
x11_6 0
x11_7 0
x11_8 0
x11_9 0
x11_10 0
x11_12 0
x11_13 0
x11_14 0
x11_15 0
x11_16 0
x11_17 0
x11_18 0
x11_19 0
x11_20 0
x11_21 0
x11_22 0
x11_23 0
x11_24 0
x11_25 0
x11_26 0
x11_27 0
x11_28 0
x11_29 0
x11_30 0
x11_31 0
x11_32 0
x11_33 0
x11_34 0
x11_35 0
x11_36 0
x11_37 0
x11_38 0
x11_39 0
x11_40 0
x11_41 0
x11_42 0
x11_43 0
x11_44 0
x11_45 0
x11_46 0
x11_47 0
x11_48 0
x11_49 0
x12_0 0
x12_1 0
x12_2 0
x12_3 0
x12_4 0
x12_5 0
x12_6 0
x12_7 0
x12_8 0
x12_9 0
x12_10 0
x12_11 0
x12_13 0
x12_14 0
x12_15 0
x12_16 0
x12_17 0
x12_18 0
x12_19 0
x12_20 0
x12_21 0
x12_22 0
x12_23 0
x12_24 0
x12_25 0
x12_26 0
x12_27 0
x12_28 0
x12_29 0
x12_30 0
x12_31 0
x12_32 0
x12_33 0
x12_34 0
x12_35 0
x12_36 0
x12_37 0
x12_38 0
x12_39 0
x12_40 0
x12_41 0
x12_42 0
x12_43 0
x12_44 0
x12_45 0
x12_46 0
x12_47 0
x12_48 0
x12_49 0
x13_0 0
x13_1 0
x13_2 0
x13_3 0
x13_4 0
x13_5 0
x13_6 0
x13_7 0
x13_8 0
x13_9 0
x13_10 0
x13_11 0
x13_12 0
x13_14 0
x13_15 0
x13_16 0
x13_17 0
x13_18 0
x13_19 0
x13_20 0
x13_21 0
x13_22 0
x13_23 0
x13_24 0
x13_25 0
x13_26 0
x13_27 0
x13_28 0
x13_29 0
x13_30 0
x13_31 0
x13_32 0
x13_33 0
x13_34 0
x13_35 0
x13_36 0
x13_37 0
x13_38 0
x13_39 0
x13_40 0
x13_41 0
x13_42 0
x13_43 0
x13_44 0
x13_45 0
x13_46 0
x13_47 0
x13_48 0
x13_49 0
x14_0 0
x14_1 0
x14_2 0
x14_3 0
x14_4 0
x14_5 0
x14_6 0
x14_7 0
x14_8 0
x14_9 0
x14_10 0
x14_11 0
x14_12 0
x14_13 0
x14_15 0
x14_16 0
x14_17 0
x14_18 0
x14_19 0
x14_20 0
x14_21 0
x14_22 0
x14_23 0
x14_24 0
x14_25 0
x14_26 0
x14_27 0
x14_28 0
x14_29 0
x14_30 0
x14_31 0
x14_32 0
x14_33 0
x14_34 0
x14_35 0
x14_36 0
x14_37 0
x14_38 0
x14_39 0
x14_40 0
x14_41 0
x14_42 0
x14_43 0
x14_44 0
x14_45 0
x14_46 0
x14_47 0
x14_48 0
x14_49 0
x15_0 0
x15_1 0
x15_2 0
x15_3 0
x15_4 0
x15_5 0
x15_6 0
x15_7 0
x15_8 0
x15_9 0
x15_10 0
x15_11 0
x15_12 0
x15_13 0
x15_14 0
x15_16 0
x15_17 0
x15_18 0
x15_19 0
x15_20 0
x15_21 0
x15_22 1
x15_23 0
x15_24 0
x15_25 0
x15_26 0
x15_27 0
x15_28 0
x15_29 0
x15_30 0
x15_31 0
x15_32 0
x15_33 0
x15_34 0
x15_35 0
x15_36 0
x15_37 0
x15_38 0
x15_39 0
x15_40 0
x15_41 0
x15_42 0
x15_43 0
x15_44 0
x15_45 0
x15_46 0
x15_47 0
x15_48 0
x15_49 0
x16_0 0
x16_1 0
x16_2 0
x16_3 0
x16_4 0
x16_5 0
x16_6 0
x16_7 0
x16_8 0
x16_9 0
x16_10 0
x16_11 0
x16_12 0
x16_13 0
x16_14 0
x16_15 0
x16_17 0
x16_18 0
x16_19 0
x16_20 0
x16_21 0
x16_22 0
x16_23 0
x16_24 0
x16_25 0
x16_26 0
x16_27 0
x16_28 0
x16_29 0
x16_30 0
x16_31 0
x16_32 0
x16_33 0
x16_34 0
x16_35 0
x16_36 0
x16_37 0
x16_38 0
x16_39 0
x16_40 0
x16_41 0
x16_42 0
x16_43 0
x16_44 0
x16_45 0
x16_46 0
x16_47 0
x16_48 0
x16_49 0
x17_0 0
x17_1 0
x17_2 0
x17_3 0
x17_4 0
x17_5 0
x17_6 0
x17_7 0
x17_8 0
x17_9 0
x17_10 0
x17_11 0
x17_12 0
x17_13 0
x17_14 0
x17_15 0
x17_16 0
x17_18 0
x17_19 0
x17_20 0
x17_21 0
x17_22 0
x17_23 0
x17_24 0
x17_25 0
x17_26 0
x17_27 0
x17_28 0
x17_29 0
x17_30 0
x17_31 0
x17_32 0
x17_33 0
x17_34 0
x17_35 0
x17_36 0
x17_37 0
x17_38 0
x17_39 0
x17_40 0
x17_41 0
x17_42 0
x17_43 0
x17_44 0
x17_45 0
x17_46 0
x17_47 0
x17_48 0
x17_49 0
x18_0 0
x18_1 0
x18_2 0
x18_3 0
x18_4 0
x18_5 0
x18_6 0
x18_7 0
x18_8 0
x18_9 0
x18_10 0
x18_11 0
x18_12 0
x18_13 0
x18_14 0
x18_15 0
x18_16 0
x18_17 0
x18_19 0
x18_20 0
x18_21 0
x18_22 0
x18_23 0
x18_24 0
x18_25 0
x18_26 0
x18_27 0
x18_28 0
x18_29 0
x18_30 0
x18_31 0
x18_32 0
x18_33 0
x18_34 0
x18_35 0
x18_36 0
x18_37 0
x18_38 0
x18_39 0
x18_40 0
x18_41 0
x18_42 0
x18_43 0
x18_44 0
x18_45 0
x18_46 0
x18_47 0
x18_48 0
x18_49 0
x19_0 0
x19_1 0
x19_2 0
x19_3 0
x19_4 0
x19_5 0
x19_6 0
x19_7 0
x19_8 0
x19_9 0
x19_10 0
x19_11 0
x19_12 0
x19_13 0
x19_14 0
x19_15 0
x19_16 0
x19_17 0
x19_18 0
x19_20 0
x19_21 0
x19_22 0
x19_23 0
x19_24 0
x19_25 0
x19_26 0
x19_27 0
x19_28 0
x19_29 0
x19_30 0
x19_31 0
x19_32 0
x19_33 0
x19_34 0
x19_35 0
x19_36 0
x19_37 0
x19_38 0
x19_39 0
x19_40 0
x19_41 0
x19_42 0
x19_43 0
x19_44 0
x19_45 0
x19_46 0
x19_47 0
x19_48 0
x19_49 0
x20_0 0
x20_1 0
x20_2 0
x20_3 0
x20_4 0
x20_5 0
x20_6 0
x20_7 0
x20_8 0
x20_9 0
x20_10 0
x20_11 0
x20_12 0
x20_13 0
x20_14 0
x20_15 0
x20_16 0
x20_17 0
x20_18 0
x20_19 0
x20_21 0
x20_22 0
x20_23 0
x20_24 0
x20_25 0
x20_26 0
x20_27 0
x20_28 0
x20_29 0
x20_30 0
x20_31 0
x20_32 0
x20_33 0
x20_34 0
x20_35 0
x20_36 0
x20_37 0
x20_38 0
x20_39 0
x20_40 0
x20_41 0
x20_42 0
x20_43 0
x20_44 0
x20_45 0
x20_46 0
x20_47 0
x20_48 0
x20_49 0
x21_0 0
x21_1 0
x21_2 0
x21_3 0
x21_4 0
x21_5 0
x21_6 0
x21_7 0
x21_8 0
x21_9 0
x21_10 0
x21_11 0
x21_12 0
x21_13 0
x21_14 0
x21_15 0
x21_16 0
x21_17 0
x21_18 0
x21_19 0
x21_20 0
x21_22 0
x21_23 0
x21_24 0
x21_25 0
x21_26 0
x21_27 0
x21_28 0
x21_29 0
x21_30 0
x21_31 0
x21_32 0
x21_33 0
x21_34 0
x21_35 0
x21_36 0
x21_37 0
x21_38 0
x21_39 0
x21_40 0
x21_41 0
x21_42 0
x21_43 0
x21_44 0
x21_45 0
x21_46 0
x21_47 0
x21_48 0
x21_49 0
x22_0 0
x22_1 0
x22_2 0
x22_3 0
x22_4 0
x22_5 0
x22_6 0
x22_7 0
x22_8 0
x22_9 0
x22_10 0
x22_11 0
x22_12 0
x22_13 0
x22_14 0
x22_15 0
x22_16 0
x22_17 0
x22_18 0
x22_19 0
x22_20 0
x22_21 0
x22_23 0
x22_24 0
x22_25 0
x22_26 0
x22_27 0
x22_28 0
x22_29 0
x22_30 0
x22_31 0
x22_32 0
x22_33 1
x22_34 0
x22_35 0
x22_36 0
x22_37 0
x22_38 0
x22_39 0
x22_40 0
x22_41 0
x22_42 0
x22_43 0
x22_44 0
x22_45 0
x22_46 0
x22_47 0
x22_48 0
x22_49 0
x23_0 0
x23_1 0
x23_2 0
x23_3 0
x23_4 0
x23_5 0
x23_6 0
x23_7 0
x23_8 0
x23_9 0
x23_10 0
x23_11 0
x23_12 0
x23_13 0
x23_14 0
x23_15 1
x23_16 0
x23_17 0
x23_18 0
x23_19 0
x23_20 0
x23_21 0
x23_22 0
x23_24 0
x23_25 0
x23_26 0
x23_27 0
x23_28 0
x23_29 0
x23_30 0
x23_31 0
x23_32 0
x23_33 0
x23_34 0
x23_35 0
x23_36 0
x23_37 0
x23_38 0
x23_39 0
x23_40 0
x23_41 0
x23_42 0
x23_43 0
x23_44 0
x23_45 0
x23_46 0
x23_47 0
x23_48 0
x23_49 0
x24_0 0
x24_1 0
x24_2 0
x24_3 0
x24_4 0
x24_5 0
x24_6 0
x24_7 0
x24_8 0
x24_9 0
x24_10 0
x24_11 0
x24_12 0
x24_13 0
x24_14 0
x24_15 0
x24_16 0
x24_17 0
x24_18 0
x24_19 0
x24_20 0
x24_21 0
x24_22 0
x24_23 0
x24_25 0
x24_26 0
x24_27 0
x24_28 0
x24_29 0
x24_30 0
x24_31 0
x24_32 0
x24_33 0
x24_34 0
x24_35 0
x24_36 0
x24_37 0
x24_38 0
x24_39 0
x24_40 0
x24_41 0
x24_42 0
x24_43 0
x24_44 0
x24_45 1
x24_46 0
x24_47 0
x24_48 0
x24_49 0
x25_0 0
x25_1 0
x25_2 0
x25_3 0
x25_4 0
x25_5 0
x25_6 0
x25_7 0
x25_8 0
x25_9 0
x25_10 0
x25_11 0
x25_12 0
x25_13 0
x25_14 0
x25_15 0
x25_16 0
x25_17 0
x25_18 0
x25_19 0
x25_20 0
x25_21 0
x25_22 0
x25_23 0
x25_24 0
x25_26 0
x25_27 0
x25_28 0
x25_29 0
x25_30 0
x25_31 0
x25_32 0
x25_33 0
x25_34 0
x25_35 0
x25_36 0
x25_37 0
x25_38 0
x25_39 0
x25_40 0
x25_41 0
x25_42 0
x25_43 0
x25_44 0
x25_45 0
x25_46 0
x25_47 0
x25_48 0
x25_49 0
x26_0 0
x26_1 0
x26_2 0
x26_3 0
x26_4 0
x26_5 0
x26_6 0
x26_7 0
x26_8 0
x26_9 0
x26_10 0
x26_11 0
x26_12 0
x26_13 0
x26_14 0
x26_15 0
x26_16 0
x26_17 0
x26_18 0
x26_19 0
x26_20 0
x26_21 0
x26_22 0
x26_23 0
x26_24 0
x26_25 0
x26_27 0
x26_28 0
x26_29 0
x26_30 0
x26_31 0
x26_32 0
x26_33 0
x26_34 0
x26_35 0
x26_36 0
x26_37 0
x26_38 0
x26_39 0
x26_40 0
x26_41 0
x26_42 0
x26_43 0
x26_44 0
x26_45 0
x26_46 0
x26_47 0
x26_48 0
x26_49 0
x27_0 0
x27_1 0
x27_2 0
x27_3 0
x27_4 0
x27_5 0
x27_6 0
x27_7 0
x27_8 0
x27_9 0
x27_10 0
x27_11 0
x27_12 0
x27_13 0
x27_14 0
x27_15 0
x27_16 0
x27_17 0
x27_18 0
x27_19 0
x27_20 0
x27_21 0
x27_22 0
x27_23 0
x27_24 0
x27_25 0
x27_26 0
x27_28 0
x27_29 0
x27_30 0
x27_31 0
x27_32 0
x27_33 0
x27_34 0
x27_35 0
x27_36 0
x27_37 0
x27_38 0
x27_39 0
x27_40 0
x27_41 0
x27_42 0
x27_43 0
x27_44 0
x27_45 0
x27_46 0
x27_47 0
x27_48 0
x27_49 0
x28_0 0
x28_1 0
x28_2 0
x28_3 0
x28_4 0
x28_5 0
x28_6 0
x28_7 0
x28_8 0
x28_9 0
x28_10 0
x28_11 0
x28_12 0
x28_13 0
x28_14 0
x28_15 0
x28_16 0
x28_17 0
x28_18 0
x28_19 0
x28_20 0
x28_21 0
x28_22 0
x28_23 0
x28_24 0
x28_25 0
x28_26 0
x28_27 0
x28_29 0
x28_30 0
x28_31 0
x28_32 0
x28_33 0
x28_34 0
x28_35 0
x28_36 0
x28_37 0
x28_38 0
x28_39 0
x28_40 0
x28_41 0
x28_42 0
x28_43 0
x28_44 0
x28_45 0
x28_46 0
x28_47 0
x28_48 0
x28_49 0
x29_0 0
x29_1 0
x29_2 0
x29_3 0
x29_4 0
x29_5 0
x29_6 0
x29_7 0
x29_8 0
x29_9 0
x29_10 0
x29_11 0
x29_12 0
x29_13 0
x29_14 0
x29_15 0
x29_16 0
x29_17 0
x29_18 0
x29_19 0
x29_20 0
x29_21 0
x29_22 0
x29_23 0
x29_24 0
x29_25 0
x29_26 0
x29_27 0
x29_28 0
x29_30 0
x29_31 0
x29_32 0
x29_33 0
x29_34 0
x29_35 0
x29_36 0
x29_37 0
x29_38 0
x29_39 0
x29_40 0
x29_41 0
x29_42 0
x29_43 0
x29_44 0
x29_45 0
x29_46 0
x29_47 0
x29_48 0
x29_49 0
x30_0 0
x30_1 0
x30_2 0
x30_3 0
x30_4 0
x30_5 0
x30_6 0
x30_7 0
x30_8 0
x30_9 0
x30_10 0
x30_11 0
x30_12 0
x30_13 0
x30_14 0
x30_15 0
x30_16 0
x30_17 0
x30_18 0
x30_19 0
x30_20 0
x30_21 0
x30_22 0
x30_23 0
x30_24 0
x30_25 0
x30_26 0
x30_27 0
x30_28 0
x30_29 0
x30_31 0
x30_32 0
x30_33 0
x30_34 0
x30_35 0
x30_36 0
x30_37 0
x30_38 0
x30_39 0
x30_40 0
x30_41 0
x30_42 0
x30_43 0
x30_44 0
x30_45 0
x30_46 0
x30_47 0
x30_48 0
x30_49 0
x31_0 0
x31_1 0
x31_2 0
x31_3 0
x31_4 0
x31_5 0
x31_6 0
x31_7 0
x31_8 0
x31_9 1
x31_10 0
x31_11 0
x31_12 0
x31_13 0
x31_14 0
x31_15 0
x31_16 0
x31_17 0
x31_18 0
x31_19 0
x31_20 0
x31_21 0
x31_22 0
x31_23 0
x31_24 0
x31_25 0
x31_26 0
x31_27 0
x31_28 0
x31_29 0
x31_30 0
x31_32 0
x31_33 0
x31_34 0
x31_35 0
x31_36 0
x31_37 0
x31_38 0
x31_39 0
x31_40 0
x31_41 0
x31_42 0
x31_43 0
x31_44 0
x31_45 0
x31_46 0
x31_47 0
x31_48 0
x31_49 0
x32_0 0
x32_1 0
x32_2 0
x32_3 0
x32_4 0
x32_5 0
x32_6 0
x32_7 0
x32_8 0
x32_9 0
x32_10 0
x32_11 0
x32_12 0
x32_13 0
x32_14 0
x32_15 0
x32_16 0
x32_17 0
x32_18 0
x32_19 0
x32_20 0
x32_21 0
x32_22 0
x32_23 0
x32_24 0
x32_25 0
x32_26 0
x32_27 0
x32_28 0
x32_29 0
x32_30 0
x32_31 0
x32_33 0
x32_34 0
x32_35 0
x32_36 0
x32_37 0
x32_38 0
x32_39 0
x32_40 0
x32_41 0
x32_42 0
x32_43 0
x32_44 0
x32_45 0
x32_46 0
x32_47 0
x32_48 0
x32_49 0
x33_0 0
x33_1 0
x33_2 0
x33_3 0
x33_4 0
x33_5 0
x33_6 0
x33_7 0
x33_8 0
x33_9 0
x33_10 0
x33_11 0
x33_12 0
x33_13 0
x33_14 0
x33_15 0
x33_16 0
x33_17 0
x33_18 0
x33_19 0
x33_20 0
x33_21 0
x33_22 0
x33_23 0
x33_24 0
x33_25 0
x33_26 0
x33_27 0
x33_28 0
x33_29 0
x33_30 0
x33_31 0
x33_32 0
x33_34 0
x33_35 0
x33_36 0
x33_37 0
x33_38 0
x33_39 0
x33_40 0
x33_41 0
x33_42 0
x33_43 0
x33_44 0
x33_45 0
x33_46 0
x33_47 0
x33_48 0
x33_49 1
x34_0 0
x34_1 0
x34_2 0
x34_3 0
x34_4 0
x34_5 0
x34_6 0
x34_7 0
x34_8 0
x34_9 0
x34_10 0
x34_11 0
x34_12 0
x34_13 0
x34_14 0
x34_15 0
x34_16 0
x34_17 0
x34_18 0
x34_19 0
x34_20 0
x34_21 0
x34_22 0
x34_23 0
x34_24 0
x34_25 0
x34_26 0
x34_27 0
x34_28 0
x34_29 0
x34_30 0
x34_31 1
x34_32 0
x34_33 0
x34_35 0
x34_36 0
x34_37 0
x34_38 0
x34_39 0
x34_40 0
x34_41 0
x34_42 0
x34_43 0
x34_44 0
x34_45 0
x34_46 0
x34_47 0
x34_48 0
x34_49 0
x35_0 0
x35_1 0
x35_2 0
x35_3 0
x35_4 0
x35_5 0
x35_6 0
x35_7 0
x35_8 0
x35_9 0
x35_10 0
x35_11 0
x35_12 0
x35_13 0
x35_14 0
x35_15 0
x35_16 0
x35_17 0
x35_18 0
x35_19 0
x35_20 0
x35_21 0
x35_22 0
x35_23 0
x35_24 0
x35_25 0
x35_26 0
x35_27 0
x35_28 0
x35_29 0
x35_30 0
x35_31 0
x35_32 0
x35_33 0
x35_34 0
x35_36 0
x35_37 0
x35_38 0
x35_39 0
x35_40 0
x35_41 0
x35_42 0
x35_43 0
x35_44 0
x35_45 0
x35_46 0
x35_47 0
x35_48 0
x35_49 0
x36_0 0
x36_1 0
x36_2 0
x36_3 0
x36_4 0
x36_5 0
x36_6 0
x36_7 0
x36_8 0
x36_9 0
x36_10 0
x36_11 0
x36_12 0
x36_13 0
x36_14 0
x36_15 0
x36_16 0
x36_17 0
x36_18 0
x36_19 0
x36_20 0
x36_21 0
x36_22 0
x36_23 0
x36_24 0
x36_25 0
x36_26 0
x36_27 0
x36_28 0
x36_29 0
x36_30 0
x36_31 0
x36_32 0
x36_33 0
x36_34 0
x36_35 0
x36_37 0
x36_38 0
x36_39 0
x36_40 0
x36_41 0
x36_42 0
x36_43 0
x36_44 0
x36_45 0
x36_46 0
x36_47 0
x36_48 0
x36_49 0
x37_0 0
x37_1 0
x37_2 0
x37_3 0
x37_4 0
x37_5 0
x37_6 0
x37_7 0
x37_8 0
x37_9 0
x37_10 1
x37_11 0
x37_12 0
x37_13 0
x37_14 0
x37_15 0
x37_16 0
x37_17 0
x37_18 0
x37_19 0
x37_20 0
x37_21 0
x37_22 0
x37_23 0
x37_24 0
x37_25 0
x37_26 0
x37_27 0
x37_28 0
x37_29 0
x37_30 0
x37_31 0
x37_32 0
x37_33 0
x37_34 0
x37_35 0
x37_36 0
x37_38 0
x37_39 0
x37_40 0
x37_41 0
x37_42 0
x37_43 0
x37_44 0
x37_45 0
x37_46 0
x37_47 0
x37_48 0
x37_49 0
x38_0 0
x38_1 0
x38_2 0
x38_3 0
x38_4 0
x38_5 0
x38_6 0
x38_7 0
x38_8 0
x38_9 0
x38_10 0
x38_11 0
x38_12 0
x38_13 0
x38_14 0
x38_15 0
x38_16 0
x38_17 0
x38_18 0
x38_19 0
x38_20 0
x38_21 0
x38_22 0
x38_23 0
x38_24 0
x38_25 0
x38_26 0
x38_27 0
x38_28 0
x38_29 0
x38_30 0
x38_31 0
x38_32 0
x38_33 0
x38_34 0
x38_35 0
x38_36 0
x38_37 0
x38_39 0
x38_40 0
x38_41 0
x38_42 0
x38_43 0
x38_44 0
x38_45 0
x38_46 0
x38_47 0
x38_48 0
x38_49 0
x39_0 0
x39_1 0
x39_2 0
x39_3 0
x39_4 0
x39_5 0
x39_6 0
x39_7 0
x39_8 0
x39_9 0
x39_10 0
x39_11 0
x39_12 0
x39_13 0
x39_14 0
x39_15 0
x39_16 0
x39_17 0
x39_18 0
x39_19 0
x39_20 0
x39_21 0
x39_22 0
x39_23 0
x39_24 0
x39_25 0
x39_26 0
x39_27 0
x39_28 0
x39_29 0
x39_30 0
x39_31 0
x39_32 0
x39_33 0
x39_34 0
x39_35 0
x39_36 0
x39_37 0
x39_38 0
x39_40 1
x39_41 0
x39_42 0
x39_43 0
x39_44 0
x39_45 0
x39_46 0
x39_47 0
x39_48 0
x39_49 0
x40_0 0
x40_1 1
x40_2 0
x40_3 0
x40_4 0
x40_5 0
x40_6 0
x40_7 0
x40_8 0
x40_9 0
x40_10 0
x40_11 0
x40_12 0
x40_13 0
x40_14 0
x40_15 0
x40_16 0
x40_17 0
x40_18 0
x40_19 0
x40_20 0
x40_21 0
x40_22 0
x40_23 0
x40_24 0
x40_25 0
x40_26 0
x40_27 0
x40_28 0
x40_29 0
x40_30 0
x40_31 0
x40_32 0
x40_33 0
x40_34 0
x40_35 0
x40_36 0
x40_37 0
x40_38 0
x40_39 0
x40_41 0
x40_42 0
x40_43 0
x40_44 0
x40_45 0
x40_46 0
x40_47 0
x40_48 0
x40_49 0
x41_0 0
x41_1 0
x41_2 0
x41_3 0
x41_4 0
x41_5 0
x41_6 0
x41_7 0
x41_8 0
x41_9 0
x41_10 0
x41_11 0
x41_12 0
x41_13 0
x41_14 0
x41_15 0
x41_16 0
x41_17 0
x41_18 0
x41_19 0
x41_20 0
x41_21 0
x41_22 0
x41_23 0
x41_24 0
x41_25 0
x41_26 0
x41_27 0
x41_28 0
x41_29 0
x41_30 0
x41_31 0
x41_32 0
x41_33 0
x41_34 0
x41_35 0
x41_36 0
x41_37 0
x41_38 0
x41_39 0
x41_40 0
x41_42 0
x41_43 0
x41_44 0
x41_45 0
x41_46 0
x41_47 0
x41_48 0
x41_49 0
x42_0 0
x42_1 0
x42_2 0
x42_3 0
x42_4 0
x42_5 0
x42_6 0
x42_7 0
x42_8 0
x42_9 0
x42_10 0
x42_11 0
x42_12 0
x42_13 0
x42_14 0
x42_15 0
x42_16 0
x42_17 0
x42_18 0
x42_19 0
x42_20 0
x42_21 0
x42_22 0
x42_23 0
x42_24 0
x42_25 0
x42_26 0
x42_27 0
x42_28 0
x42_29 0
x42_30 0
x42_31 0
x42_32 0
x42_33 0
x42_34 0
x42_35 0
x42_36 0
x42_37 0
x42_38 0
x42_39 1
x42_40 0
x42_41 0
x42_43 0
x42_44 0
x42_45 0
x42_46 0
x42_47 0
x42_48 0
x42_49 0
x43_0 0
x43_1 0
x43_2 0
x43_3 0
x43_4 0
x43_5 0
x43_6 0
x43_7 0
x43_8 0
x43_9 0
x43_10 0
x43_11 0
x43_12 0
x43_13 0
x43_14 0
x43_15 0
x43_16 0
x43_17 0
x43_18 0
x43_19 0
x43_20 0
x43_21 0
x43_22 0
x43_23 0
x43_24 0
x43_25 0
x43_26 0
x43_27 0
x43_28 0
x43_29 0
x43_30 0
x43_31 0
x43_32 0
x43_33 0
x43_34 0
x43_35 0
x43_36 0
x43_37 0
x43_38 0
x43_39 0
x43_40 0
x43_41 0
x43_42 0
x43_44 0
x43_45 0
x43_46 0
x43_47 0
x43_48 0
x43_49 0
x44_0 0
x44_1 0
x44_2 0
x44_3 0
x44_4 0
x44_5 0
x44_6 0
x44_7 0
x44_8 0
x44_9 0
x44_10 0
x44_11 0
x44_12 0
x44_13 0
x44_14 0
x44_15 0
x44_16 0
x44_17 0
x44_18 0
x44_19 0
x44_20 0
x44_21 0
x44_22 0
x44_23 0
x44_24 0
x44_25 0
x44_26 0
x44_27 0
x44_28 0
x44_29 0
x44_30 0
x44_31 0
x44_32 0
x44_33 0
x44_34 0
x44_35 0
x44_36 0
x44_37 0
x44_38 0
x44_39 0
x44_40 0
x44_41 0
x44_42 0
x44_43 0
x44_45 0
x44_46 0
x44_47 0
x44_48 0
x44_49 0
x45_0 0
x45_1 0
x45_2 0
x45_3 0
x45_4 0
x45_5 0
x45_6 0
x45_7 0
x45_8 0
x45_9 0
x45_10 0
x45_11 0
x45_12 0
x45_13 0
x45_14 0
x45_15 0
x45_16 0
x45_17 0
x45_18 0
x45_19 0
x45_20 0
x45_21 0
x45_22 0
x45_23 0
x45_24 0
x45_25 0
x45_26 0
x45_27 0
x45_28 0
x45_29 0
x45_30 0
x45_31 0
x45_32 0
x45_33 0
x45_34 0
x45_35 0
x45_36 0
x45_37 1
x45_38 0
x45_39 0
x45_40 0
x45_41 0
x45_42 0
x45_43 0
x45_44 0
x45_46 0
x45_47 0
x45_48 0
x45_49 0
x46_0 0
x46_1 0
x46_2 0
x46_3 0
x46_4 0
x46_5 0
x46_6 0
x46_7 0
x46_8 0
x46_9 0
x46_10 0
x46_11 0
x46_12 0
x46_13 0
x46_14 0
x46_15 0
x46_16 0
x46_17 0
x46_18 0
x46_19 0
x46_20 0
x46_21 0
x46_22 0
x46_23 0
x46_24 0
x46_25 0
x46_26 0
x46_27 0
x46_28 0
x46_29 0
x46_30 0
x46_31 0
x46_32 0
x46_33 0
x46_34 0
x46_35 0
x46_36 0
x46_37 0
x46_38 0
x46_39 0
x46_40 0
x46_41 0
x46_42 0
x46_43 0
x46_44 0
x46_45 0
x46_47 0
x46_48 0
x46_49 0
x47_0 0
x47_1 0
x47_2 0
x47_3 0
x47_4 0
x47_5 0
x47_6 0
x47_7 0
x47_8 0
x47_9 0
x47_10 0
x47_11 0
x47_12 0
x47_13 0
x47_14 0
x47_15 0
x47_16 0
x47_17 0
x47_18 0
x47_19 0
x47_20 0
x47_21 0
x47_22 0
x47_23 0
x47_24 0
x47_25 0
x47_26 0
x47_27 0
x47_28 0
x47_29 0
x47_30 0
x47_31 0
x47_32 0
x47_33 0
x47_34 0
x47_35 0
x47_36 0
x47_37 0
x47_38 0
x47_39 0
x47_40 0
x47_41 0
x47_42 0
x47_43 0
x47_44 0
x47_45 0
x47_46 0
x47_48 0
x47_49 0
x48_0 0
x48_1 0
x48_2 0
x48_3 0
x48_4 0
x48_5 0
x48_6 0
x48_7 0
x48_8 0
x48_9 0
x48_10 0
x48_11 0
x48_12 0
x48_13 0
x48_14 0
x48_15 0
x48_16 0
x48_17 0
x48_18 0
x48_19 0
x48_20 0
x48_21 0
x48_22 0
x48_23 0
x48_24 0
x48_25 0
x48_26 0
x48_27 0
x48_28 0
x48_29 0
x48_30 0
x48_31 0
x48_32 0
x48_33 0
x48_34 0
x48_35 0
x48_36 0
x48_37 0
x48_38 0
x48_39 0
x48_40 0
x48_41 0
x48_42 0
x48_43 0
x48_44 0
x48_45 0
x48_46 0
x48_47 0
x48_49 0
x49_0 1
x49_1 0
x49_2 0
x49_3 0
x49_4 0
x49_5 0
x49_6 0
x49_7 0
x49_8 0
x49_9 0
x49_10 0
x49_11 0
x49_12 0
x49_13 0
x49_14 0
x49_15 0
x49_16 0
x49_17 0
x49_18 0
x49_19 0
x49_20 0
x49_21 0
x49_22 0
x49_23 0
x49_24 0
x49_25 0
x49_26 0
x49_27 0
x49_28 0
x49_29 0
x49_30 0
x49_31 0
x49_32 0
x49_33 0
x49_34 0
x49_35 0
x49_36 0
x49_37 0
x49_38 0
x49_39 0
x49_40 0
x49_41 0
x49_42 0
x49_43 0
x49_44 0
x49_45 0
x49_46 0
x49_47 0
x49_48 0
c0_31 0
c0_24 0
c0_33 0
c0_9 0
c0_1 0
c0_37 0
c0_39 0
c0_45 0
c0_49 0
c0_23 0
c0_34 0
c0_42 0
c0_22 0
c0_10 0
c0_15 0
c1_31 0
c1_24 0
c1_33 0
c1_9 0
c1_1 1
c1_37 0
c1_39 0
c1_45 0
c1_49 0
c1_23 0
c1_34 0
c1_42 0
c1_22 0
c1_10 0
c1_15 0
c2_31 0
c2_24 0
c2_33 0
c2_9 0
c2_1 0
c2_37 0
c2_39 0
c2_45 0
c2_49 0
c2_23 0
c2_34 0
c2_42 0
c2_22 0
c2_10 0
c2_15 0
c3_31 0
c3_24 0
c3_33 0
c3_9 0
c3_1 0
c3_37 0
c3_39 0
c3_45 0
c3_49 0
c3_23 0
c3_34 0
c3_42 0
c3_22 0
c3_10 0
c3_15 0
c4_31 0
c4_24 0
c4_33 0
c4_9 0
c4_1 0
c4_37 0
c4_39 0
c4_45 0
c4_49 0
c4_23 0
c4_34 0
c4_42 0
c4_22 0
c4_10 0
c4_15 0
c5_31 0
c5_24 0
c5_33 0
c5_9 0
c5_1 0
c5_37 0
c5_39 0
c5_45 0
c5_49 0
c5_23 0
c5_34 0
c5_42 0
c5_22 0
c5_10 0
c5_15 0
c6_31 0
c6_24 0
c6_33 0
c6_9 0
c6_1 0
c6_37 0
c6_39 0
c6_45 0
c6_49 0
c6_23 0
c6_34 0
c6_42 0
c6_22 0
c6_10 0
c6_15 0
c7_31 0
c7_24 0
c7_33 0
c7_9 0
c7_1 0
c7_37 0
c7_39 0
c7_45 0
c7_49 0
c7_23 0
c7_34 0
c7_42 0
c7_22 0
c7_10 0
c7_15 0
c8_31 0
c8_24 0
c8_33 0
c8_9 0
c8_1 0
c8_37 0
c8_39 0
c8_45 0
c8_49 0
c8_23 0
c8_34 0
c8_42 0
c8_22 0
c8_10 0
c8_15 0
c9_31 0
c9_24 0
c9_33 0
c9_9 1
c9_1 0
c9_37 0
c9_39 0
c9_45 0
c9_49 0
c9_23 0
c9_34 0
c9_42 0
c9_22 0
c9_10 0
c9_15 0
c10_31 0
c10_24 0
c10_33 0
c10_9 0
c10_1 0
c10_37 0
c10_39 0
c10_45 0
c10_49 0
c10_23 0
c10_34 0
c10_42 0
c10_22 0
c10_10 1
c10_15 0
c11_31 0
c11_24 0
c11_33 0
c11_9 0
c11_1 0
c11_37 0
c11_39 0
c11_45 0
c11_49 0
c11_23 0
c11_34 0
c11_42 0
c11_22 0
c11_10 0
c11_15 0
c12_31 0
c12_24 0
c12_33 0
c12_9 0
c12_1 0
c12_37 0
c12_39 0
c12_45 0
c12_49 0
c12_23 0
c12_34 0
c12_42 0
c12_22 0
c12_10 0
c12_15 0
c13_31 0
c13_24 0
c13_33 0
c13_9 0
c13_1 0
c13_37 0
c13_39 0
c13_45 0
c13_49 0
c13_23 0
c13_34 0
c13_42 0
c13_22 0
c13_10 0
c13_15 0
c14_31 0
c14_24 0
c14_33 0
c14_9 0
c14_1 0
c14_37 0
c14_39 0
c14_45 0
c14_49 0
c14_23 0
c14_34 0
c14_42 0
c14_22 0
c14_10 0
c14_15 0
c15_31 0
c15_24 0
c15_33 0
c15_9 0
c15_1 0
c15_37 0
c15_39 0
c15_45 0
c15_49 0
c15_23 0
c15_34 0
c15_42 0
c15_22 0
c15_10 0
c15_15 1
c16_31 0
c16_24 0
c16_33 0
c16_9 0
c16_1 0
c16_37 0
c16_39 0
c16_45 0
c16_49 0
c16_23 0
c16_34 0
c16_42 0
c16_22 0
c16_10 0
c16_15 0
c17_31 0
c17_24 0
c17_33 0
c17_9 0
c17_1 0
c17_37 0
c17_39 0
c17_45 0
c17_49 0
c17_23 0
c17_34 0
c17_42 0
c17_22 0
c17_10 0
c17_15 0
c18_31 0
c18_24 0
c18_33 0
c18_9 0
c18_1 0
c18_37 0
c18_39 0
c18_45 0
c18_49 0
c18_23 0
c18_34 0
c18_42 0
c18_22 0
c18_10 0
c18_15 0
c19_31 0
c19_24 0
c19_33 0
c19_9 0
c19_1 0
c19_37 0
c19_39 0
c19_45 0
c19_49 0
c19_23 0
c19_34 0
c19_42 0
c19_22 0
c19_10 0
c19_15 0
c20_31 0
c20_24 0
c20_33 0
c20_9 0
c20_1 0
c20_37 0
c20_39 0
c20_45 0
c20_49 0
c20_23 0
c20_34 0
c20_42 0
c20_22 0
c20_10 0
c20_15 0
c21_31 0
c21_24 0
c21_33 0
c21_9 0
c21_1 0
c21_37 0
c21_39 0
c21_45 0
c21_49 0
c21_23 0
c21_34 0
c21_42 0
c21_22 0
c21_10 0
c21_15 0
c22_31 0
c22_24 0
c22_33 0
c22_9 0
c22_1 0
c22_37 0
c22_39 0
c22_45 0
c22_49 0
c22_23 0
c22_34 0
c22_42 0
c22_22 1
c22_10 0
c22_15 0
c23_31 0
c23_24 0
c23_33 0
c23_9 0
c23_1 0
c23_37 0
c23_39 0
c23_45 0
c23_49 0
c23_23 1
c23_34 0
c23_42 0
c23_22 0
c23_10 0
c23_15 0
c24_31 0
c24_24 1
c24_33 0
c24_9 0
c24_1 0
c24_37 0
c24_39 0
c24_45 0
c24_49 0
c24_23 0
c24_34 0
c24_42 0
c24_22 0
c24_10 0
c24_15 0
c25_31 0
c25_24 0
c25_33 0
c25_9 0
c25_1 0
c25_37 0
c25_39 0
c25_45 0
c25_49 0
c25_23 0
c25_34 0
c25_42 0
c25_22 0
c25_10 0
c25_15 0
c26_31 0
c26_24 0
c26_33 0
c26_9 0
c26_1 0
c26_37 0
c26_39 0
c26_45 0
c26_49 0
c26_23 0
c26_34 0
c26_42 0
c26_22 0
c26_10 0
c26_15 0
c27_31 0
c27_24 0
c27_33 0
c27_9 0
c27_1 0
c27_37 0
c27_39 0
c27_45 0
c27_49 0
c27_23 0
c27_34 0
c27_42 0
c27_22 0
c27_10 0
c27_15 0
c28_31 0
c28_24 0
c28_33 0
c28_9 0
c28_1 0
c28_37 0
c28_39 0
c28_45 0
c28_49 0
c28_23 0
c28_34 0
c28_42 0
c28_22 0
c28_10 0
c28_15 0
c29_31 0
c29_24 0
c29_33 0
c29_9 0
c29_1 0
c29_37 0
c29_39 0
c29_45 0
c29_49 0
c29_23 0
c29_34 0
c29_42 0
c29_22 0
c29_10 0
c29_15 0
c30_31 0
c30_24 0
c30_33 0
c30_9 0
c30_1 0
c30_37 0
c30_39 0
c30_45 0
c30_49 0
c30_23 0
c30_34 0
c30_42 0
c30_22 0
c30_10 0
c30_15 0
c31_31 1
c31_24 0
c31_33 0
c31_9 0
c31_1 0
c31_37 0
c31_39 0
c31_45 0
c31_49 0
c31_23 0
c31_34 0
c31_42 0
c31_22 0
c31_10 0
c31_15 0
c32_31 0
c32_24 0
c32_33 0
c32_9 0
c32_1 0
c32_37 0
c32_39 0
c32_45 0
c32_49 0
c32_23 0
c32_34 0
c32_42 0
c32_22 0
c32_10 0
c32_15 0
c33_31 0
c33_24 0
c33_33 1
c33_9 0
c33_1 0
c33_37 0
c33_39 0
c33_45 0
c33_49 0
c33_23 0
c33_34 0
c33_42 0
c33_22 0
c33_10 0
c33_15 0
c34_31 0
c34_24 0
c34_33 0
c34_9 0
c34_1 0
c34_37 0
c34_39 0
c34_45 0
c34_49 0
c34_23 0
c34_34 1
c34_42 0
c34_22 0
c34_10 0
c34_15 0
c35_31 0
c35_24 0
c35_33 0
c35_9 0
c35_1 0
c35_37 0
c35_39 0
c35_45 0
c35_49 0
c35_23 0
c35_34 0
c35_42 0
c35_22 0
c35_10 0
c35_15 0
c36_31 0
c36_24 0
c36_33 0
c36_9 0
c36_1 0
c36_37 0
c36_39 0
c36_45 0
c36_49 0
c36_23 0
c36_34 0
c36_42 0
c36_22 0
c36_10 0
c36_15 0
c37_31 0
c37_24 0
c37_33 0
c37_9 0
c37_1 0
c37_37 1
c37_39 0
c37_45 0
c37_49 0
c37_23 0
c37_34 0
c37_42 0
c37_22 0
c37_10 0
c37_15 0
c38_31 0
c38_24 0
c38_33 0
c38_9 0
c38_1 0
c38_37 0
c38_39 0
c38_45 0
c38_49 0
c38_23 0
c38_34 0
c38_42 0
c38_22 0
c38_10 0
c38_15 0
c39_31 0
c39_24 0
c39_33 0
c39_9 0
c39_1 0
c39_37 0
c39_39 1
c39_45 0
c39_49 0
c39_23 0
c39_34 0
c39_42 0
c39_22 0
c39_10 0
c39_15 0
c40_31 0
c40_24 0
c40_33 0
c40_9 0
c40_1 0
c40_37 0
c40_39 0
c40_45 0
c40_49 0
c40_23 0
c40_34 0
c40_42 0
c40_22 0
c40_10 0
c40_15 0
c41_31 0
c41_24 0
c41_33 0
c41_9 0
c41_1 0
c41_37 0
c41_39 0
c41_45 0
c41_49 0
c41_23 0
c41_34 0
c41_42 0
c41_22 0
c41_10 0
c41_15 0
c42_31 0
c42_24 0
c42_33 0
c42_9 0
c42_1 0
c42_37 0
c42_39 0
c42_45 0
c42_49 0
c42_23 0
c42_34 0
c42_42 1
c42_22 0
c42_10 0
c42_15 0
c43_31 0
c43_24 0
c43_33 0
c43_9 0
c43_1 0
c43_37 0
c43_39 0
c43_45 0
c43_49 0
c43_23 0
c43_34 0
c43_42 0
c43_22 0
c43_10 0
c43_15 0
c44_31 0
c44_24 0
c44_33 0
c44_9 0
c44_1 0
c44_37 0
c44_39 0
c44_45 0
c44_49 0
c44_23 0
c44_34 0
c44_42 0
c44_22 0
c44_10 0
c44_15 0
c45_31 0
c45_24 0
c45_33 0
c45_9 0
c45_1 0
c45_37 0
c45_39 0
c45_45 1
c45_49 0
c45_23 0
c45_34 0
c45_42 0
c45_22 0
c45_10 0
c45_15 0
c46_31 0
c46_24 0
c46_33 0
c46_9 0
c46_1 0
c46_37 0
c46_39 0
c46_45 0
c46_49 0
c46_23 0
c46_34 0
c46_42 0
c46_22 0
c46_10 0
c46_15 0
c47_31 0
c47_24 0
c47_33 0
c47_9 0
c47_1 0
c47_37 0
c47_39 0
c47_45 0
c47_49 0
c47_23 0
c47_34 0
c47_42 0
c47_22 0
c47_10 0
c47_15 0
c48_31 0
c48_24 0
c48_33 0
c48_9 0
c48_1 0
c48_37 0
c48_39 0
c48_45 0
c48_49 0
c48_23 0
c48_34 0
c48_42 0
c48_22 0
c48_10 0
c48_15 0
c49_31 0
c49_24 0
c49_33 0
c49_9 0
c49_1 0
c49_37 0
c49_39 0
c49_45 0
c49_49 1
c49_23 0
c49_34 0
c49_42 0
c49_22 0
c49_10 0
c49_15 0
x0_0 0
x1_1 0
x2_2 0
x3_3 0
x4_4 0
x5_5 0
x6_6 0
x7_7 0
x8_8 0
x9_9 0
x10_10 0
x11_11 0
x12_12 0
x13_13 0
x14_14 0
x15_15 0
x16_16 0
x17_17 0
x18_18 0
x19_19 0
x20_20 0
x21_21 0
x22_22 0
x23_23 0
x24_24 0
x25_25 0
x26_26 0
x27_27 0
x28_28 0
x29_29 0
x30_30 0
x31_31 0
x32_32 0
x33_33 0
x34_34 0
x35_35 0
x36_36 0
x37_37 0
x38_38 0
x39_39 0
x40_40 0
x41_41 0
x42_42 0
x43_43 0
x44_44 0
x45_45 0
x46_46 0
x47_47 0
x48_48 0
x49_49 0
u1 3
u2 0
u3 0
u4 0
u5 0
u6 0
u7 0
u8 0
u9 44
u10 41
u11 0
u12 0
u13 0
u14 0
u15 46
u16 0
u17 0
u18 0
u19 0
u20 0
u21 0
u22 47
u23 45
u24 4
u25 0
u26 0
u27 0
u28 0
u29 0
u30 0
u31 43
u32 0
u33 48
u34 42
u35 0
u36 0
u37 40
u38 0
u39 1
u40 2
u41 0
u42 0
u43 0
u44 0
u45 39
u46 0
u47 0
u48 0
u49 49
