outputs/121_50.out
HL WZ LJ YP QZ UY ED SU TH QK JS ZZ GL BI NV KT AU HL
15
WZ WZ
TH TH
UY UY
JS JS
ZZ ZZ
QK QK
LJ LJ
SU SU
GL GL
ED ED
QZ QZ
AU AU
KT KT
YP YP
BI BI
